certificates/rado_a10_c8_N35.drat
-33 -35 0
d -33 -1 -35 0
11 13 33 0
-3 -35 0
-35 0
33 0
3 0
-1 0
-25 0
-11 0
27 0
23 0
13 0
9 0
-5 0
-31 0
7 0
29 0
0
